p cnf 7230 17
-2568 -3214 3669 0
-1882 -3104 -3674 0
-2584 -3034 -3672 0
-1876 -3100 -3670 0
1882 -3675 0
2584 -3673 0
1876 -3671 0
3674 3675 0
3672 3673 0
3670 3671 0
3104 -3675 0
3034 -3673 0
3100 -3671 0
-3668 -3669 0
3032 -3677 0
1884 -3677 0
3668 3669 0
